certificates/rado_a11_c229_N23.cnf
c Rad2 upper bound instance: x1 + 11*x2 - x3 = 229, interval [1,23]
p cnf 23 96
1 3 21 0
-1 -3 -21 0
1 14 22 0
-1 -14 -22 0
2 4 21 0
-2 -4 -21 0
2 15 22 0
-2 -15 -22 0
3 5 21 0
-3 -5 -21 0
3 16 22 0
-3 -16 -22 0
4 6 21 0
-4 -6 -21 0
4 17 22 0
-4 -17 -22 0
5 7 21 0
-5 -7 -21 0
5 18 22 0
-5 -18 -22 0
6 8 21 0
-6 -8 -21 0
6 19 22 0
-6 -19 -22 0
7 9 21 0
-7 -9 -21 0
7 20 22 0
-7 -20 -22 0
8 10 21 0
-8 -10 -21 0
8 21 22 0
-8 -21 -22 0
9 11 21 0
-9 -11 -21 0
9 22 0
-9 -22 0
1 10 20 0
-1 -10 -20 0
10 12 21 0
-10 -12 -21 0
10 22 23 0
-10 -22 -23 0
2 11 20 0
-2 -11 -20 0
11 13 21 0
-11 -13 -21 0
3 12 20 0
-3 -12 -20 0
12 14 21 0
-12 -14 -21 0
4 13 20 0
-4 -13 -20 0
13 15 21 0
-13 -15 -21 0
5 14 20 0
-5 -14 -20 0
14 16 21 0
-14 -16 -21 0
6 15 20 0
-6 -15 -20 0
15 17 21 0
-15 -17 -21 0
7 16 20 0
-7 -16 -20 0
16 18 21 0
-16 -18 -21 0
8 17 20 0
-8 -17 -20 0
17 19 21 0
-17 -19 -21 0
9 18 20 0
-9 -18 -20 0
18 20 21 0
-18 -20 -21 0
10 19 20 0
-10 -19 -20 0
19 21 0
-19 -21 0
11 20 0
-11 -20 0
20 21 22 0
-20 -21 -22 0
1 19 21 0
-1 -19 -21 0
12 20 21 0
-12 -20 -21 0
21 23 0
-21 -23 0
2 19 22 0
-2 -19 -22 0
13 20 22 0
-13 -20 -22 0
3 19 23 0
-3 -19 -23 0
14 20 23 0
-14 -20 -23 0
