certificates/rado_a11_c229_N23.drat
-22 -23 0
22 21 0
d 8 22 21 0
-23 0
21 0
-19 0
3 0
-1 0
-5 0
22 0
-9 0
-16 0
-8 0
-20 0
7 0
17 0
11 0
14 0
10 0
18 0
-4 0
-15 0
-13 0
-12 0
0
